<instance format="XCSP3" type="CSP">
  <variables>
    <var id="x0"> 7 11 12 </var>
    <var id="x1"> 0 5 17 </var>
    <var id="x2"> 3 5 7 12 </var>
    <var id="x3"> 3 11 12 16 17 </var>
    <var id="x4"> 0 16 17 </var>
    <var id="x5"> 5 16 </var>
    <var id="x6"> 0 5 11 </var>
    <var id="x7"> 0 5 12 16 17 </var>
    <var id="x8"> 5 6 8 </var>
    <var id="x9"> 1 5 10 13 </var>
    <var id="x10"> 5 6 10 17 </var>
    <var id="x11"> 1 13 17 </var>
    <var id="x12"> 0 1 8 13 17 </var>
    <var id="x13"> 0 1 5 6 8 </var>
    <var id="x14"> 0 6 8 17 </var>
    <var id="x15"> 0 1 5 6 </var>
    <var id="x16"> 10 12 13 </var>
    <var id="x17"> 0 10 13 14 17 </var>
    <var id="x18"> 12 13 16 17 </var>
    <var id="x19"> 0 12 13 16 17 </var>
    <var id="x20"> 0 16 </var>
    <var id="x21"> 0 2 16 </var>
    <var id="x22"> 2 12 </var>
    <var id="x23"> 0 2 12 16 </var>
    <var id="x24"> 2..5 11 </var>
    <var id="x25"> 4 7 11 12 </var>
    <var id="x26"> 3 4 11 12 </var>
    <var id="x27"> 2 5 6 </var>
    <var id="x28"> 5 11 </var>
    <var id="x29"> 4..6 12 </var>
    <var id="x30"> 3 6 </var>
    <var id="x31"> 6 </var>
    <var id="x32"> 1 5 12 13 </var>
    <var id="x33"> 1 13 16 17 </var>
    <var id="x34"> 6 12 16 17 </var>
    <var id="x35"> 1 2 5 6 13 16 </var>
    <var id="x36"> 1 5 13 </var>
    <var id="x37"> 5 6 12 13 16 17 </var>
    <var id="x38"> 1 5 6 12 16 </var>
    <var id="x39"> 2 5 6 12 </var>
    <var id="x40"> 1 2 4 5 10 </var>
    <var id="x41"> 4 5 10 13 14 </var>
    <var id="x42"> 1 5 10 13 </var>
    <var id="x43"> 5 10 14 </var>
    <var id="x44"> 1 4 13 14 </var>
    <var id="x45"> 5 9 13 </var>
    <var id="x46"> 1 9 </var>
    <var id="x47"> 1 2 5 </var>
    <var id="x48"> 6 8 11 12 </var>
    <var id="x49"> 3 11 </var>
    <var id="x50"> 6 7 11 12 14 </var>
    <var id="x51"> 8 14 </var>
    <var id="x52"> 3 6 12 14 </var>
    <var id="x53"> 8 11 </var>
    <var id="x54"> 6 7 12 </var>
    <var id="x55"> 1 5 10 11 </var>
    <var id="x56"> 5 10..12 </var>
    <var id="x57"> 1 5 8 10 16 </var>
    <var id="x58"> 1 5 8 10 11 </var>
    <var id="x59"> 1 8 16 </var>
    <var id="x60"> 1 5 8 16 </var>
    <var id="x61"> 1 5 12 16 </var>
    <var id="x62"> 4 5 12 16 </var>
    <var id="x63"> 1 4 5 10 </var>
    <var id="x64"> 0 4 5 10 13 </var>
    <var id="x65"> 0 1 4 13 16 </var>
    <var id="x66"> 0 12 16 </var>
    <var id="x67"> 1 5 10 13 16 </var>
    <var id="x68"> 0 16 </var>
    <var id="x69"> 5 12 </var>
    <var id="x70"> 1 4 9 </var>
    <var id="x71"> 1 3 15 </var>
    <var id="x72"> 0 3 9 16 </var>
    <var id="x73"> 1 8 16 </var>
    <var id="x74"> 0 9 16 </var>
    <var id="x75"> 0 1 4 8 16 </var>
    <var id="x76"> 0 1 8 16 </var>
    <var id="x77"> 3 8 15 </var>
    <var id="x78"> 1..3 </var>
    <var id="x79"> 8 13 </var>
    <var id="x80"> 3 6 9 16 </var>
    <var id="x81"> 1 8 9 13 </var>
    <var id="x82"> 6 9 13 16 </var>
    <var id="x83"> 1 6 8 16 </var>
    <var id="x84"> 3 6 8 9 16 </var>
    <var id="x85"> 1 2 6 8 16 </var>
    <var id="x86"> 5 6 8 9 11 12 </var>
    <var id="x87"> 1 9..12 </var>
    <var id="x88"> 5 8 10 </var>
    <var id="x89"> 1 5 10 12 </var>
    <var id="x90"> 5 6 10..12 </var>
    <var id="x91"> 1 5 8..11 </var>
    <var id="x92"> 1 5 6 8 12 </var>
    <var id="x93"> 1 5 6 8 </var>
    <var id="x94"> 4 6 8 9 </var>
    <var id="x95"> 4 15 </var>
    <var id="x96"> 4 9 13 </var>
    <var id="x97"> 0 4 8 13 17 </var>
    <var id="x98"> 4 13 17 </var>
    <var id="x99"> 0 6 9 13 17 </var>
    <var id="x100"> 0 6 8 9 15 17 </var>
    <var id="x101"> 0 6 8 9 15 </var>
    <var id="x102"> 1 9 10 12 </var>
    <var id="x103"> 0 8 10 17 </var>
    <var id="x104"> 1 3 10 12 </var>
    <var id="x105"> 0 3 9 12 17 </var>
    <var id="x106"> 0 1 8..10 </var>
    <var id="x107"> 0 1 8 9 </var>
    <var id="x108"> 3 8 12 </var>
    <var id="x109"> 0 1 12 </var>
    <var id="x110"> 5 6 8 9 11 16 </var>
    <var id="x111"> 1 5 </var>
    <var id="x112"> 5 6 11 17 </var>
    <var id="x113"> 1 11 16 17 </var>
    <var id="x114"> 1 5 6 8 16 </var>
    <var id="x115"> 5 6 9 16 17 </var>
    <var as="x114" id="x116"/>
    <var id="x117"> 6 8 9 16 17 </var>
    <var id="x118"> 5 6 8 12 16 </var>
    <var id="x119"> 5..7 12 </var>
    <var id="x120"> 12 16 </var>
    <var id="x121"> 0 8 16 </var>
    <var id="x122"> 0 5 6 8 12 16 </var>
    <var id="x123"> 0 6 8 15 16 </var>
    <var id="x124"> 5 6 8 12 15 </var>
    <var id="x125"> 0 5..7 12 16 </var>
    <var id="x126"> 4 5 15 </var>
    <var id="x127"> 5 6 </var>
    <var id="x128"> 4 13 16 </var>
    <var id="x129"> 0 4 13 16 </var>
    <var id="x130"> 0 6 16 </var>
    <var id="x131"> 0 6 15 16 </var>
    <var id="x132"> 0 5 6 16 </var>
    <var id="x133"> 4..6 16 </var>
    <var id="x134"> 1 4 </var>
    <var id="x135"> 0 6 14 16 </var>
    <var id="x136"> 1 5 6 16 </var>
    <var id="x137"> 0 1 6 15 16 </var>
    <var id="x138"> 0 1 5 6 16 </var>
    <var id="x139"> 5 6 15 </var>
    <var as="x138" id="x140"/>
  </variables>
  <constraints>
    <group>
      <allDifferent> %... </allDifferent>
      <args> x0 x1 x2 x3 x4 x5 x6 x7 </args>
      <args> x8 x9 x10 x11 x12 x13 x14 x15 </args>
      <args> x16 x17 x18 x19 x20 x21 x22 x23 </args>
      <args> x24 x25 x26 x27 x28 x29 x30 x31 </args>
      <args> x32 x33 x34 x35 x36 x37 x38 x39 </args>
      <args> x40 x41 x42 x43 x44 x45 x46 x47 </args>
      <args> x48 x49 x50 x51 x52 x53 x54 </args>
      <args> x55 x56 x57 x58 x59 x60 x61 </args>
      <args> x62 x63 x64 x65 x66 x67 x68 x69 </args>
      <args> x70 x71 x72 x73 x74 x75 x76 x77 </args>
      <args> x78 x79 x80 x81 x82 x83 x84 x85 </args>
      <args> x86 x87 x88 x89 x90 x91 x92 x93 </args>
      <args> x94 x95 x96 x97 x98 x99 x100 x101 </args>
      <args> x102 x103 x104 x105 x106 x107 x108 x109 </args>
      <args> x110 x111 x112 x113 x114 x115 x116 x117 </args>
      <args> x118 x119 x120 x121 x122 x123 x124 x125 </args>
      <args> x126 x127 x128 x129 x130 x131 x132 </args>
      <args> x133 x134 x135 x136 x137 x138 x139 x140 </args>
      <args> x8 x48 x62 x86 x94 x110 x118 x133 </args>
      <args> x24 x40 x49 x55 x63 x78 x95 x126 </args>
      <args> x0 x16 x25 x70 x87 x96 x102 x134 </args>
      <args> x1 x17 x41 x64 x79 x88 x97 x103 </args>
      <args> x2 x9 x32 x42 x71 x89 x104 x111 </args>
      <args> x10 x43 x50 x56 x90 x112 x119 x127 </args>
      <args> x3 x11 x18 x26 x98 x113 x120 x128 </args>
      <args> x4 x12 x33 x44 x51 x65 x121 x129 </args>
      <args> x34 x52 x66 x72 x80 x105 x130 x135 </args>
      <args> x5 x27 x35 x57 x67 x73 x114 x136 </args>
      <args> x6 x28 x36 x53 x58 x81 x91 x106 </args>
      <args> x7 x19 x37 x45 x74 x82 x99 x115 </args>
      <args> x13 x29 x38 x75 x83 x92 x116 x122 </args>
      <args> x14 x30 x68 x84 x100 x117 x123 x131 </args>
      <args> x20 x31 x46 x59 x101 x107 x137 </args>
      <args> x21 x60 x76 x85 x93 x132 x138 </args>
      <args> x22 x39 x69 x77 x108 x124 x139 </args>
      <args> x15 x23 x47 x54 x61 x109 x125 x140 </args>
    </group>
  </constraints>
</instance>

